c FILE: i080-133

c SOURCE: From steinlib

c DESCRIPTION: Steinlib instance with 80 nodes and 160 edges.

p edge 80 160
e 1 3
e 1 15
e 1 28
e 1 43
e 1 44
e 1 51
e 1 53
e 2 8
e 2 20
e 2 49
e 2 52
e 2 57
e 2 79
e 3 14
e 3 58
e 4 16
e 4 43
e 4 67
e 4 77
e 5 7
e 5 12
e 5 16
e 5 64
e 6 10
e 6 38
e 7 9
e 7 22
e 7 59
e 7 61
e 8 29
e 8 30
e 8 50
e 9 12
e 9 26
e 9 34
e 9 35
e 9 38
e 10 28
e 10 50
e 11 13
e 11 36
e 11 43
e 11 56
e 12 35
e 13 27
e 13 29
e 14 15
e 14 27
e 14 42
e 14 72
e 15 17
e 15 29
e 15 37
e 15 39
e 15 64
e 16 37
e 17 24
e 18 24
e 18 25
e 18 43
e 18 47
e 18 50
e 18 76
e 19 32
e 19 61
e 20 27
e 20 37
e 20 57
e 20 71
e 21 33
e 21 71
e 21 76
e 21 78
e 23 41
e 23 51
e 23 62
e 23 79
e 24 42
e 25 32
e 25 70
e 26 63
e 27 61
e 28 41
e 28 45
e 28 74
e 28 75
e 29 43
e 29 49
e 29 72
e 29 73
e 30 71
e 31 69
e 31 74
e 32 34
e 32 52
e 32 55
e 33 41
e 33 48
e 33 53
e 33 63
e 34 61
e 34 62
e 34 68
e 34 79
e 36 42
e 36 47
e 36 49
e 36 66
e 37 61
e 37 76
e 38 41
e 38 45
e 38 46
e 38 64
e 38 76
e 39 69
e 40 47
e 40 80
e 41 70
e 41 76
e 41 80
e 42 61
e 42 66
e 43 47
e 43 70
e 44 57
e 44 75
e 45 51
e 45 60
e 45 71
e 46 48
e 46 78
e 47 68
e 48 59
e 48 65
e 48 73
e 49 51
e 49 69
e 50 75
e 51 58
e 51 59
e 51 67
e 51 77
e 52 74
e 52 75
e 53 69
e 54 76
e 55 62
e 56 57
e 57 67
e 59 64
e 59 68
e 60 68
e 61 64
e 64 69
e 64 70
e 65 78
e 68 74
e 76 78
e 77 80
